data/solutions/recovery/degenerate/moderate/flexible/degenerate_moderate_instance6/53.sol
Elapsed time: 0.06
Upper bound: 10539863.0
Planning weighted value: 63796125.0
C[0]=10539863.0
C[1]=10523010.0
C[2]=10455982.0
y[0]=1
y[1]=0
y[2]=1
y[3]=0
y[4]=2
y[5]=1
y[6]=1
y[7]=0
y[8]=1
y[9]=1
y[10]=2
y[11]=0
y[12]=1
y[13]=0
y[14]=0
y[15]=0
y[16]=0
y[17]=1
y[18]=1
y[19]=2
y[20]=2
y[21]=1
y[22]=2
y[23]=1
y[24]=2
y[25]=2
