data/solutions/recovery/degenerate/moderate/flexible/degenerate_moderate_instance6/53.log

Log started (V12.6.3.0) Sat Apr 21 11:06:25 2018

New value for default parallel thread count: 1

Problem '/tmp/tmpmixEcp.pyomo.lp' read.
Read time = 0.00 sec. (0.02 ticks)

Problem name         : /tmp/tmpmixEcp.pyomo.lp
Objective sense      : Minimize
Variables            :      83  [Nneg: 1,  Binary: 78,  General Integer: 4]
Objective nonzeros   :       1
Linear constraints   :      59  [Less: 29,  Equal: 30]
  Nonzeros           :    1466
  RHS nonzeros       :      53

Variables            : Min LB: 0.000000         Max UB: 1.000000       
Objective nonzeros   : Min   : 1.000000         Max   : 1.000000       
Linear constraints   :
  Nonzeros           : Min   : 1.000000         Max   : 2096995.       
  RHS nonzeros       : Min   : 1.000000         Max   : 3.000000       
Tried aggregator 2 times.
MIP Presolve eliminated 26 rows and 1 columns.
Aggregator did 3 substitutions.
Reduced MIP has 30 rows, 79 columns, and 209 nonzeros.
Reduced MIP has 78 binaries, 1 generals, 0 SOSs, and 0 indicators.
Presolve time = 0.00 sec. (0.56 ticks)
Found incumbent of value 1.1258855e+07 after 0.00 sec. (0.71 ticks)
Probing time = 0.00 sec. (0.04 ticks)
Cover probing fixed 0 vars, tightened 4 bounds.
Tried aggregator 1 time.
Reduced MIP has 30 rows, 79 columns, and 209 nonzeros.
Reduced MIP has 78 binaries, 1 generals, 0 SOSs, and 0 indicators.
Presolve time = 0.00 sec. (0.13 ticks)
Probing time = 0.00 sec. (0.03 ticks)
Clique table members: 26.
MIP emphasis: balance optimality and feasibility.
MIP search method: dynamic search.
Parallel mode: none, using 1 thread.
Root relaxation solution time = 0.00 sec. (0.07 ticks)

        Nodes                                         Cuts/
   Node  Left     Objective  IInf  Best Integer    Best Bound    ItCnt     Gap

*     0+    0                       1.12589e+07  2096995.0000            81.37%
      0     0   1.05063e+07     4   1.12589e+07   1.05063e+07        4    6.68%
*     0+    0                       1.11444e+07   1.05063e+07             5.73%
      0     0   1.05063e+07     7   1.11444e+07      Fract: 2        9    5.73%
*     0+    0                       1.05853e+07   1.05063e+07             0.75%
      0     0   1.05063e+07     7   1.05853e+07     Covers: 1       10    0.75%
      0     2   1.05063e+07     7   1.05853e+07   1.05063e+07       10    0.75%
Elapsed time = 0.00 sec. (2.32 ticks, tree = 0.01 MB, solutions = 2)
*    30+   17                       1.05732e+07   1.05063e+07             0.63%
*    80+   33                       1.05399e+07   1.05063e+07             0.32%

Cover cuts applied:  24
Gomory fractional cuts applied:  1

Root node processing (before b&c):
  Real time             =    0.00 sec. (2.32 ticks)
Sequential b&c:
  Real time             =    0.02 sec. (18.06 ticks)
                          ------------
Total (root+branch&cut) =    0.03 sec. (20.39 ticks)

Solution pool: 4 solutions saved.

MIP - Integer optimal solution:  Objective =  1.0539863000e+07
Solution time =    0.03 sec.  Iterations = 1494  Nodes = 386
Deterministic time = 20.39 ticks  (734.48 ticks/sec)


Incumbent solution written to file '/tmp/tmptiApP7.cplex.sol'.
